     Program PWSCF v.5.3.0 (svn rev. 11974) starts on 11May2016 at 23:45:50

     Current dimensions of program PWSCF are:
     Max number of different atomic species (ntypx) = 10
     Max number of k-points (npk) =  40000
     Max angular momentum in pseudopotentials (lmaxx) =  3
               file Fe.pbe-spn-kjpaw_psl.0.2.1.UPF: wavefunction(s)  3D renormalized
               file H.pbe-kjpaw_psl.0.1.UPF: wavefunction(s)  1S renormalized

     Generating pointlists ...
     new r_m :   0.1031 (alat units)  1.1044 (a.u.) for type    1
     new r_m :   0.1031 (alat units)  1.1044 (a.u.) for type    2

     bravais-lattice index     =            0
     lattice parameter (alat)  =      10.7097  a.u.
     unit-cell volume          =    1228.3742 (a.u.)^3
     number of atoms/cell      =           17
     number of atomic types    =            2
     number of electrons       =       257.00
     number of Kohn-Sham states=          155
     kinetic-energy cutoff     =     100.0000  Ry
     charge density cutoff     =     900.0000  Ry
     convergence threshold     =      1.0E-07
     mixing beta               =       0.5000
     number of iterations used =            8  local-TF  mixing
     Exchange-correlation      =  SLA  PW   PBX  PBC ( 1  4  3  4 0 0)
     nstep                     =           50

     celldm(1)=  10.709690  celldm(2)=   0.000000  celldm(3)=   0.000000
     celldm(4)=   0.000000  celldm(5)=   0.000000  celldm(6)=   0.000000

     crystal axes: (cart. coord. in units of alat)
               a(1) = (   1.000000   0.000000   0.000000 )
               a(2) = (   0.000000   1.000000   0.000000 )
               a(3) = (   0.000000   0.000000   1.000000 )

     reciprocal axes: (cart. coord. in units 2 pi/alat)
               b(1) = (  1.000000  0.000000  0.000000 )
               b(2) = (  0.000000  1.000000  0.000000 )
               b(3) = (  0.000000  0.000000  1.000000 )

     PseudoPot. # 1 for Fe read from file:
     /home/staff/ifeanyijohn.onuorah/pseudo/Fe.pbe-spn-kjpaw_psl.0.2.1.UPF
     MD5 check sum: ad5d885054e60f2e780f97f310f6a303
     Pseudo is Projector augmented-wave + core cor, Zval = 16.0
     Generated using "atomic" code by A. Dal Corso  v.5.0.2 svn rev. 9415
     Shape of augmentation charge: PSQ
     Using radial grid of 1191 points,  6 beta functions with:
                l(1) =   0
                l(2) =   0
                l(3) =   1
                l(4) =   1
                l(5) =   2
                l(6) =   2
     Q(r) pseudized with 0 coefficients

     PseudoPot. # 2 for  H read from file:
     /home/staff/ifeanyijohn.onuorah/pseudo/H.pbe-kjpaw_psl.0.1.UPF
     MD5 check sum: c439e23f70ca22dfb59b46f37ccc36ba
     Pseudo is Projector augmented-wave, Zval =  1.0
     Generated using "atomic" code by A. Dal Corso  v.5.0.2 svn rev. 9415
     Shape of augmentation charge: PSQ
     Using radial grid of  929 points,  2 beta functions with:
                l(1) =   0
                l(2) =   0
     Q(r) pseudized with 0 coefficients

     atomic species   valence    mass     pseudopotential
        Fe            16.00    56.00000     Fe( 1.00)
        H              1.00     1.00000      H( 1.00)

     Starting magnetic structure
     atomic species   magnetization
        Fe           0.500
        H            0.000

     16 Sym. Ops., with inversion, found (12 have fractional translation)

                                    s                        frac. trans.

      isym =  1     identity

 cryst.   s( 1) = (     1          0          0      )
                  (     0          1          0      )
                  (     0          0          1      )

 cart.    s( 1) = (  1.0000000  0.0000000  0.0000000 )
                  (  0.0000000  1.0000000  0.0000000 )
                  (  0.0000000  0.0000000  1.0000000 )

      isym =  2     180 deg rotation - cart. axis [0,0,1]

 cryst.   s( 2) = (    -1          0          0      )    f =(  0.5000000 )
                  (     0         -1          0      )       (  0.5000000 )
                  (     0          0          1      )       (  0.0000000 )

 cart.    s( 2) = ( -1.0000000  0.0000000  0.0000000 )    f =(  0.5000000 )
                  (  0.0000000 -1.0000000  0.0000000 )       (  0.5000000 )
                  (  0.0000000  0.0000000  1.0000000 )       (  0.0000000 )

[...]

 cryst.   s( 5) = (     0          1          0      )
                  (     1          0          0      )
                  (     0          0         -1      )

 cart.    s( 5) = (  0.0000000  1.0000000  0.0000000 )
                  (  1.0000000  0.0000000  0.0000000 )
                  (  0.0000000  0.0000000 -1.0000000 )

[...]

      isym =  8      90 deg rotation - cart. axis [0,0,1]

[...]

      isym =  9     inversion

 cryst.   s( 9) = (    -1          0          0      )    f =(  0.5000000 )
                  (     0         -1          0      )       (  0.5000000 )
                  (     0          0         -1      )       (  0.0000000 )

 cart.    s( 9) = ( -1.0000000  0.0000000  0.0000000 )    f =(  0.5000000 )
                  (  0.0000000 -1.0000000  0.0000000 )       (  0.5000000 )
                  (  0.0000000  0.0000000 -1.0000000 )       (  0.0000000 )

      isym = 10     inv. 180 deg rotation - cart. axis [0,0,1]

 cryst.   s(10) = (     1          0          0      )
                  (     0          1          0      )
                  (     0          0         -1      )

 cart.    s(10) = (  1.0000000  0.0000000  0.0000000 )
                  (  0.0000000  1.0000000  0.0000000 )
                  (  0.0000000  0.0000000 -1.0000000 )

[...]

 cryst.   s(11) = (     1          0          0      )    f =(  0.0000000 )
                  (     0         -1          0      )       (  0.5000000 )
                  (     0          0          1      )       (  0.0000000 )

 cart.    s(11) = (  1.0000000  0.0000000  0.0000000 )    f =(  0.0000000 )
                  (  0.0000000 -1.0000000  0.0000000 )       (  0.5000000 )
                  (  0.0000000  0.0000000  1.0000000 )       (  0.0000000 )

[...]

 cryst.   s(14) = (     0          1          0      )
                  (     1          0          0      )
                  (     0          0          1      )

 cart.    s(14) = (  0.0000000  1.0000000  0.0000000 )
                  (  1.0000000  0.0000000  0.0000000 )
                  (  0.0000000  0.0000000  1.0000000 )

[...]

      isym = 16     inv.  90 deg rotation - cart. axis [0,0,1]

 cryst.   s(16) = (     0         -1          0      )    f =(  0.0000000 )
                  (     1          0          0      )       (  0.5000000 )
                  (     0          0         -1      )       (  0.0000000 )

 cart.    s(16) = (  0.0000000  1.0000000  0.0000000 )    f =(  0.0000000 )
                  ( -1.0000000  0.0000000  0.0000000 )       (  0.5000000 )
                  (  0.0000000  0.0000000 -1.0000000 )       (  0.0000000 )

   Cartesian axes

     site n.     atom                  positions (alat units)
         1           Fe  tau(   1) = (   0.0000000   0.0000000   0.0000000  )
         2           Fe  tau(   2) = (   0.2499986   0.2499986   0.2499986  )
         3           Fe  tau(   3) = (   0.0000000   0.0000000   0.5000000  )
         4           Fe  tau(   4) = (   0.2499986   0.2499986   0.7500014  )
         5           Fe  tau(   5) = (   0.0000000   0.5000000   0.0000000  )
         6           Fe  tau(   6) = (   0.2499986   0.7500014   0.2499986  )
         7           Fe  tau(   7) = (   0.0000000   0.5000000   0.5000000  )
         8           Fe  tau(   8) = (   0.2499986   0.7500014   0.7500014  )
         9           Fe  tau(   9) = (   0.5000000   0.0000000   0.0000000  )
        10           Fe  tau(  10) = (   0.7500014   0.2499986   0.2499986  )
        11           Fe  tau(  11) = (   0.5000000   0.0000000   0.5000000  )
        12           Fe  tau(  12) = (   0.7500014   0.2499986   0.7500014  )
        13           Fe  tau(  13) = (   0.5000000   0.5000000   0.0000000  )
        14           Fe  tau(  14) = (   0.7500014   0.7500014   0.2499986  )
        15           Fe  tau(  15) = (   0.5000000   0.5000000   0.5000000  )
        16           Fe  tau(  16) = (   0.7500014   0.7500014   0.7500014  )
        17           H   tau(  17) = (   0.2499986   0.2499986   0.5000000  )

   Crystallographic axes

     site n.     atom                  positions (cryst. coord.)
         1           Fe  tau(   1) = (  0.0000000  0.0000000  0.0000000  )
         2           Fe  tau(   2) = (  0.2499986  0.2499986  0.2499986  )
         3           Fe  tau(   3) = (  0.0000000  0.0000000  0.5000000  )
         4           Fe  tau(   4) = (  0.2499986  0.2499986  0.7500014  )
         5           Fe  tau(   5) = (  0.0000000  0.5000000  0.0000000  )
         6           Fe  tau(   6) = (  0.2499986  0.7500014  0.2499986  )
         7           Fe  tau(   7) = (  0.0000000  0.5000000  0.5000000  )
         8           Fe  tau(   8) = (  0.2499986  0.7500014  0.7500014  )
         9           Fe  tau(   9) = (  0.5000000  0.0000000  0.0000000  )
        10           Fe  tau(  10) = (  0.7500014  0.2499986  0.2499986  )
        11           Fe  tau(  11) = (  0.5000000  0.0000000  0.5000000  )
        12           Fe  tau(  12) = (  0.7500014  0.2499986  0.7500014  )
        13           Fe  tau(  13) = (  0.5000000  0.5000000  0.0000000  )
        14           Fe  tau(  14) = (  0.7500014  0.7500014  0.2499986  )
        15           Fe  tau(  15) = (  0.5000000  0.5000000  0.5000000  )
        16           Fe  tau(  16) = (  0.7500014  0.7500014  0.7500014  )
        17           H   tau(  17) = (  0.2499986  0.2499986  0.5000000  )

     number of k points=    40  Marzari-Vanderbilt smearing, width (Ry)=  0.0050
                       cart. coord. in units 2pi/alat
        k(    1) = (   0.0000000   0.0000000   0.0000000), wk =   0.0029155
        k(    2) = (   0.0000000   0.0000000   0.1428571), wk =   0.0058309
        k(    3) = (   0.0000000   0.0000000   0.2857143), wk =   0.0058309
        k(    4) = (   0.0000000   0.0000000   0.4285714), wk =   0.0058309
        k(    5) = (   0.0000000   0.1428571   0.1428571), wk =   0.0233236
        k(    6) = (   0.0000000   0.1428571   0.2857143), wk =   0.0233236
        k(    7) = (   0.0000000   0.1428571   0.4285714), wk =   0.0233236
        k(    8) = (   0.0000000   0.2857143   0.2857143), wk =   0.0233236
        k(    9) = (   0.0000000   0.2857143   0.4285714), wk =   0.0233236
        k(   10) = (   0.0000000   0.4285714   0.4285714), wk =   0.0233236
        k(   11) = (   0.1428571   0.1428571   0.1428571), wk =   0.0233236
        k(   12) = (   0.1428571   0.1428571   0.2857143), wk =   0.0233236
        k(   13) = (   0.1428571   0.1428571   0.4285714), wk =   0.0233236
        k(   14) = (   0.1428571   0.2857143   0.2857143), wk =   0.0466472
        k(   15) = (   0.1428571   0.2857143   0.4285714), wk =   0.0466472
        k(   16) = (   0.1428571   0.4285714   0.4285714), wk =   0.0466472
        k(   17) = (   0.2857143   0.2857143   0.2857143), wk =   0.0233236
[...]
   -33.5747 -33.4400 -33.3835 -33.3818 -33.3336 -33.3322 -33.3102 -33.2931
   -33.2798 -33.2754 -33.2716 -33.2709 -33.2465 -33.2424 -33.2403 -33.2227
   -33.2193 -33.2177 -33.1997 -33.1901 -33.1870 -33.1793 -33.1786 -33.1497
   -33.1158 -33.1002 -33.0898 -33.0890 -33.0815 -33.0686 -33.0422 -33.0228
   -33.0152 -33.0127 -33.0040 -33.0008 -32.9944 -32.9916 -32.9833 -32.9788
   -32.9717 -32.9687 -32.9611 -32.9562 -32.9540 -32.9480 -32.9323 -32.9267
     9.9201  12.2977  12.7298  13.0624  13.5164  13.9983  14.2303  14.5935
    15.0877  15.8801  15.8918  15.9542  15.9976  16.0396  16.0744  16.1168
    16.1225  16.3163  16.3203  16.4583  16.5054  16.5580  16.6006  16.6268
    16.6551  16.6851  16.7042  16.7977  16.8192  16.8581  16.9014  16.9073
    16.9705  17.0193  17.0309  17.0544  17.1510  17.1883  17.2227  17.2233
    17.2969  17.3067  17.3306  17.3361  17.4061  17.5943  17.5998  17.8772
    19.0890  19.3874  19.4740  19.5035  19.5765  19.6051  19.6406  19.6829
    19.7082  19.7446  19.7495  19.7585  19.7759  19.7927  19.8424  19.8490
    19.9088  19.9113  20.0145  20.0190  20.0465  20.1171  20.1531  20.1788
    20.1911  20.2020  20.2404  20.2522  20.2537  20.2645  20.2934  20.3125
    20.3733  20.3749  20.4545  20.4839  20.6114  20.9834  21.0409  21.5111
    23.4180  24.0612  24.3016

     occupation numbers
     1.0000   1.0000   1.0000   1.0000   1.0000   1.0000   1.0000   1.0000
     1.0000   1.0000   1.0000   1.0000   1.0000   1.0000   1.0000   1.0000
     1.0000   1.0000   1.0000   1.0000   1.0000   1.0000   1.0000   1.0000
     1.0000   1.0000   1.0000   1.0000   1.0000   1.0000   1.0000   1.0000
     1.0000   1.0000   1.0000   1.0000   1.0000   1.0000   1.0000   1.0000
     1.0000   1.0000   1.0000   1.0000   1.0000   1.0000   1.0000   1.0000
     1.0000   1.0000   1.0000   1.0000   1.0000   1.0000   1.0000   1.0000
     1.0000   1.0000   1.0000   1.0000   1.0000   1.0000   1.0000   1.0000
     1.0000   1.0000   1.0000   1.0000   1.0000   1.0000   1.0000   1.0000
     1.0000   1.0000   1.0000   1.0000   1.0000   1.0000   1.0000   1.0000
     1.0000   1.0000   1.0000   1.0000   1.0000   1.0000   1.0000   1.0000
     1.0000   1.0000   1.0000   1.0000   1.0000   1.0000   1.0000   1.0000
     1.0000   1.0000   1.0000   1.0000   1.0000   1.0000   1.0000   1.0000
     1.0000   1.0000   1.0000   1.0000   1.0000   1.0000   1.0000   1.0000
     0.0000   0.0000   0.0000   0.0000   0.0000   0.0000   0.0000   0.0000
     0.0000   0.0000   0.0000   0.0000   0.0000   0.0000   0.0000   0.0000
     0.0000   0.0000   0.0000   0.0000   0.0000   0.0000   0.0000   0.0000
     0.0000   0.0000   0.0000   0.0000   0.0000   0.0000   0.0000   0.0000
     0.0000   0.0000   0.0000   0.0000   0.0000   0.0000   0.0000   0.0000
     0.0000   0.0000   0.0000

     the Fermi energy is    18.4132 ev

!    total energy              =   -5269.48011688 Ry
     Harris-Foulkes estimate   =   -5269.48011688 Ry
     estimated scf accuracy    <          8.3E-10 Ry

     total all-electron energy =    -40730.224681 Ry

     The total energy is the sum of the following terms:

     one-electron contribution =   -1751.62205949 Ry
     hartree contribution      =    1046.56743404 Ry
     xc contribution           =    -558.21737739 Ry
     ewald contribution        =   -2787.76003384 Ry
     one-center paw contrib.   =   -1218.44792644 Ry
     smearing contrib. (-TS)   =      -0.00015375 Ry

     total magnetization       =    34.96 Bohr mag/cell
     absolute magnetization    =    36.82 Bohr mag/cell

     convergence has been achieved in  10 iterations

     negative rho (up, down):  0.000E+00 4.260E-04

     Forces acting on atoms (Ry/au):

     atom    1 type  1   force =     0.00052785    0.00052785    0.00000000
     atom    2 type  1   force =     0.00000000    0.00000000   -0.00088646
     atom    3 type  1   force =     0.00002360    0.00002360    0.00000000
     atom    4 type  1   force =     0.00000000    0.00000000    0.00088646
     atom    5 type  1   force =     0.00052785   -0.00052785    0.00000000
     atom    6 type  1   force =     0.00000000    0.00000000    0.00000273
     atom    7 type  1   force =     0.00002360   -0.00002360    0.00000000
     atom    8 type  1   force =     0.00000000    0.00000000   -0.00000273
     atom    9 type  1   force =    -0.00052785    0.00052785    0.00000000
     atom   10 type  1   force =     0.00000000    0.00000000    0.00000273
     atom   11 type  1   force =    -0.00002360    0.00002360    0.00000000
     atom   12 type  1   force =     0.00000000    0.00000000   -0.00000273
     atom   13 type  1   force =    -0.00052785   -0.00052785    0.00000000
     atom   14 type  1   force =     0.00000000    0.00000000    0.00084420
     atom   15 type  1   force =    -0.00002360   -0.00002360    0.00000000
     atom   16 type  1   force =     0.00000000    0.00000000   -0.00084420
     atom   17 type  2   force =     0.00000000    0.00000000    0.00000000
     The non-local contrib.  to forces
     atom    1 type  1   force =     0.01445339    0.01445339    0.00000000
     atom    2 type  1   force =     0.00000000    0.00000000    0.26300035
     atom    3 type  1   force =     0.07100170    0.07100170    0.00000000
     atom    4 type  1   force =     0.00000000    0.00000000   -0.26300035
     atom    5 type  1   force =     0.01445339   -0.01445339    0.00000000
     atom    6 type  1   force =     0.00000000    0.00000000   -0.00054983
     atom    7 type  1   force =     0.07100170   -0.07100170    0.00000000
     atom    8 type  1   force =     0.00000000    0.00000000    0.00054983
     atom    9 type  1   force =    -0.01445339    0.01445339    0.00000000
     atom   10 type  1   force =     0.00000000    0.00000000   -0.00054983
     atom   11 type  1   force =    -0.07100170    0.07100170    0.00000000
     atom   12 type  1   force =     0.00000000    0.00000000    0.00054983
     atom   13 type  1   force =    -0.01445339   -0.01445339    0.00000000
     atom   14 type  1   force =     0.00000000    0.00000000   -0.01248166
     atom   15 type  1   force =    -0.07100170   -0.07100170    0.00000000
     atom   16 type  1   force =     0.00000000    0.00000000    0.01248166
     atom   17 type  2   force =     0.00000000    0.00000000    0.00000000
     The ionic contribution  to forces
     atom    1 type  1   force =    -0.84871967   -0.84871967    0.00000003
     atom    2 type  1   force =     0.00093702    0.00093702    5.88713359
     atom    3 type  1   force =     1.39738282    1.39738282   -0.00000002
     atom    4 type  1   force =     0.00093702    0.00093702   -5.88713359
     atom    5 type  1   force =    -0.84867840    0.84865502    0.00000003
     atom    6 type  1   force =     0.00094215   -0.00093402    1.95423054
     atom    7 type  1   force =     1.39735938   -1.39736501   -0.00000002
     atom    8 type  1   force =     0.00094215   -0.00093402   -1.95423055
     atom    9 type  1   force =     0.84865502   -0.84867840    0.00000003
     atom   10 type  1   force =    -0.00093402    0.00094215    1.95423054
     atom   11 type  1   force =    -1.39736501    1.39735938   -0.00000002
     atom   12 type  1   force =    -0.00093402    0.00094215   -1.95423055
     atom   13 type  1   force =     0.84861376    0.84861376    0.00000003
     atom   14 type  1   force =    -0.00093224   -0.00093224    1.64077156
     atom   15 type  1   force =    -1.39734158   -1.39734158   -0.00000002
     atom   16 type  1   force =    -0.00093224   -0.00093224   -1.64077158
     atom   17 type  2   force =     0.00006789    0.00006789    0.00000000
     The local contribution  to forces
     atom    1 type  1   force =     0.83472650    0.83472650    0.00000000
     atom    2 type  1   force =     0.00271836    0.00271836   -6.15238999
     atom    3 type  1   force =    -1.47026055   -1.47026055   -0.00000016
     atom    4 type  1   force =     0.00271836    0.00271836    6.15238966
     atom    5 type  1   force =     0.83472650   -0.83472650    0.00000000
     atom    6 type  1   force =     0.00269461   -0.00270710   -1.95324154
     atom    7 type  1   force =    -1.47026055    1.47026055   -0.00000016
     atom    8 type  1   force =     0.00269461   -0.00270710    1.95324121
     atom    9 type  1   force =    -0.83472650    0.83472650    0.00000000
     atom   10 type  1   force =    -0.00270710    0.00269461   -1.95324154
     atom   11 type  1   force =     1.47026055   -1.47026055   -0.00000016
     atom   12 type  1   force =    -0.00270710    0.00269461    1.95324121
     atom   13 type  1   force =    -0.83472650   -0.83472650    0.00000000
     atom   14 type  1   force =    -0.00270402   -0.00270402   -1.62750554
     atom   15 type  1   force =     1.47026055    1.47026055   -0.00000016
     atom   16 type  1   force =    -0.00270402   -0.00270402    1.62750521
     atom   17 type  2   force =     0.00002388    0.00002388    0.00000000
     The core correction contribution to forces
     atom    1 type  1   force =     0.00003142    0.00003142    0.00000000
     atom    2 type  1   force =    -0.00009896   -0.00009896    0.00138395
     atom    3 type  1   force =     0.00194095    0.00194095    0.00000001
     atom    4 type  1   force =    -0.00009896   -0.00009896   -0.00138394
     atom    5 type  1   force =     0.00003142   -0.00003142    0.00000000
     atom    6 type  1   force =    -0.00009871    0.00009885   -0.00037968
     atom    7 type  1   force =     0.00194095   -0.00194095    0.00000001
     atom    8 type  1   force =    -0.00009871    0.00009885    0.00037970
     atom    9 type  1   force =    -0.00003142    0.00003142    0.00000000
     atom   10 type  1   force =     0.00009885   -0.00009871   -0.00037968
     atom   11 type  1   force =    -0.00194095    0.00194095    0.00000001
     atom   12 type  1   force =     0.00009885   -0.00009871    0.00037970
     atom   13 type  1   force =    -0.00003142   -0.00003142    0.00000000
     atom   14 type  1   force =     0.00009887    0.00009887    0.00004861
     atom   15 type  1   force =    -0.00194095   -0.00194095    0.00000001
     atom   16 type  1   force =     0.00009887    0.00009887   -0.00004860
     atom   17 type  2   force =     0.00000000    0.00000000    0.00000000
     The Hubbard contrib.    to forces
     atom    1 type  1   force =     0.00000000    0.00000000    0.00000000
     atom    2 type  1   force =     0.00000000    0.00000000    0.00000000
     atom    3 type  1   force =     0.00000000    0.00000000    0.00000000
     atom    4 type  1   force =     0.00000000    0.00000000    0.00000000
     atom    5 type  1   force =     0.00000000    0.00000000    0.00000000
     atom    6 type  1   force =     0.00000000    0.00000000    0.00000000
     atom    7 type  1   force =     0.00000000    0.00000000    0.00000000
     atom    8 type  1   force =     0.00000000    0.00000000    0.00000000
     atom    9 type  1   force =     0.00000000    0.00000000    0.00000000
     atom   10 type  1   force =     0.00000000    0.00000000    0.00000000
     atom   11 type  1   force =     0.00000000    0.00000000    0.00000000
     atom   12 type  1   force =     0.00000000    0.00000000    0.00000000
     atom   13 type  1   force =     0.00000000    0.00000000    0.00000000
     atom   14 type  1   force =     0.00000000    0.00000000    0.00000000
     atom   15 type  1   force =     0.00000000    0.00000000    0.00000000
     atom   16 type  1   force =     0.00000000    0.00000000    0.00000000
     atom   17 type  2   force =     0.00000000    0.00000000    0.00000000
     The SCF correction term to forces
     atom    1 type  1   force =    -0.00001672   -0.00001672    0.00000000
     atom    2 type  1   force =     0.00000001    0.00000001   -0.00001453
     atom    3 type  1   force =    -0.00002072   -0.00002072    0.00000000
     atom    4 type  1   force =     0.00000001    0.00000001    0.00001453
     atom    5 type  1   force =    -0.00001676    0.00001672    0.00000000
     atom    6 type  1   force =     0.00000000    0.00000000   -0.00005692
     atom    7 type  1   force =    -0.00002067    0.00002071    0.00000000
     atom    8 type  1   force =     0.00000000    0.00000000    0.00005692
     atom    9 type  1   force =     0.00001672   -0.00001676    0.00000000
     atom   10 type  1   force =     0.00000000    0.00000000   -0.00005692
     atom   11 type  1   force =     0.00002071   -0.00002067    0.00000000
     atom   12 type  1   force =     0.00000000    0.00000000    0.00005692
     atom   13 type  1   force =     0.00001676    0.00001676    0.00000000
     atom   14 type  1   force =     0.00000000    0.00000000    0.00001105
     atom   15 type  1   force =     0.00002067    0.00002067    0.00000000
     atom   16 type  1   force =     0.00000000    0.00000000   -0.00001105
     atom   17 type  2   force =     0.00000000    0.00000000    0.00000000

     Total force =     0.002287     Total SCF correction =     0.000139

     entering subroutine stress ...

     negative rho (up, down):  0.000E+00 4.260E-04
          total   stress  (Ry/bohr**3)                   (kbar)     P=   40.51
   0.00017156   0.00000000   0.00000000         25.24      0.00      0.00
   0.00000000   0.00017156   0.00000000          0.00     25.24      0.00
   0.00000000   0.00000000   0.00048313          0.00      0.00     71.07

     kinetic stress (kbar)  82229.78      0.00      0.00
                                0.00  82229.78      0.00
                                0.00      0.00  82290.99

     local   stress (kbar)  71139.28      0.00      0.00
                                0.00  71139.28      0.00
                                0.00      0.00  70331.76

     nonloc. stress (kbar) -64191.62      0.00      0.00
                                0.00 -64191.62      0.00
                                0.00      0.00 -64290.05

     hartree stress (kbar)  41716.86      0.00      0.00
                                0.00  41716.86      0.00
                                0.00      0.00  41898.90

     exc-cor stress (kbar)  -2638.76      0.00      0.00
                                0.00  -2638.76      0.00
                                0.00      0.00  -2636.08

     corecor stress (kbar) -16711.36      0.00      0.00
                                0.00 -16711.36      0.00
                                0.00      0.00 -16711.63

     ewald   stress (kbar)-111518.95      0.00      0.00
                                0.00-111518.95      0.00
                                0.00      0.00-110812.82

     hubbard stress (kbar)      0.00      0.00      0.00
                                0.00      0.00      0.00
                                0.00      0.00      0.00

     london  stress (kbar)      0.00      0.00      0.00
                                0.00      0.00      0.00
                                0.00      0.00      0.00

     XDM     stress (kbar)      0.00      0.00      0.00
                                0.00      0.00      0.00
                                0.00      0.00      0.00

     dft-nl  stress (kbar)      0.00      0.00      0.00
                                0.00      0.00      0.00
                                0.00      0.00      0.00

     TS-vdW  stress (kbar)      0.00      0.00      0.00
                                0.00      0.00      0.00
                                0.00      0.00      0.00

     bfgs converged in   8 scf cycles and   7 bfgs steps
     (criteria: energy <  1.0E-04, force <  1.0E-03)

     End of BFGS Geometry Optimization

     Final energy   =   -5269.4801168778 Ry
Begin final coordinates

ATOMIC_POSITIONS (angstrom)
Fe      -0.023518751  -0.023518751   0.000000000
Fe       1.416822755   1.416822755   1.274360160
Fe       0.003548791   0.003548791   2.833661872
Fe       1.416822755   1.416822755   4.392963584
Fe      -0.023518751   2.857180623   0.000000000
Fe       1.416822755   4.250500989   1.411417929
Fe       0.003548791   2.830113081   2.833661872
Fe       1.416822755   4.250500989   4.255905815
Fe       2.857180623  -0.023518751   0.000000000
Fe       4.250500989   1.416822755   1.411417929
Fe       2.830113081   0.003548791   2.833661872
Fe       4.250500989   1.416822755   4.255905815
Fe       2.857180623   2.857180623   0.000000000
Fe       4.250500989   4.250500989   1.431649649
Fe       2.830113081   2.830113081   2.833661872
Fe       4.250500989   4.250500989   4.235674095
H        1.416822755   1.416822755   2.833661872
End final coordinates

     Writing output data file Fe_relax.save

     General routines

     Parallel routines

     PAW routines

   This run was terminated on:   6:51:39  12May2016

   JOB DONE.