     Program PWSCF v.5.3.0 (svn rev. 11974) starts on 12May2016 at  6:51:40

     Current dimensions of program PWSCF are:
     Max number of different atomic species (ntypx) = 10
     Max number of k-points (npk) =  40000
     Max angular momentum in pseudopotentials (lmaxx) =  3
               file Fe.pbe-spn-kjpaw_psl.0.2.1.UPF: wavefunction(s)  3D renormalized
               file H.pbe-kjpaw_psl.0.1.UPF: wavefunction(s)  1S renormalized

     Generating pointlists ...
     new r_m :   0.1153 (alat units)  1.2348 (a.u.) for type    1
     new r_m :   0.1153 (alat units)  1.2348 (a.u.) for type    2

     bravais-lattice index     =            0
     lattice parameter (alat)  =      10.7097  a.u.
     unit-cell volume          =    1228.3742 (a.u.)^3
     number of atoms/cell      =           17
     number of atomic types    =            2
     number of electrons       =       257.00
     number of Kohn-Sham states=          155
     kinetic-energy cutoff     =     100.0000  Ry
     charge density cutoff     =     900.0000  Ry
     convergence threshold     =      1.0E-07
     mixing beta               =       0.5000
     number of iterations used =            8  local-TF  mixing
     Exchange-correlation      =  SLA  PW   PBX  PBC ( 1  4  3  4 0 0)
     nstep                     =           50

     celldm(1)=  10.709690  celldm(2)=   0.000000  celldm(3)=   0.000000
     celldm(4)=   0.000000  celldm(5)=   0.000000  celldm(6)=   0.000000

     crystal axes: (cart. coord. in units of alat)
               a(1) = (   1.000000   0.000000   0.000000 )
               a(2) = (   0.000000   1.000000   0.000000 )
               a(3) = (   0.000000   0.000000   1.000000 )

     reciprocal axes: (cart. coord. in units 2 pi/alat)
               b(1) = (  1.000000  0.000000  0.000000 )
               b(2) = (  0.000000  1.000000  0.000000 )
               b(3) = (  0.000000  0.000000  1.000000 )

     PseudoPot. # 1 for Fe read from file:
     /home/staff/ifeanyijohn.onuorah/pseudo/Fe.pbe-spn-kjpaw_psl.0.2.1.UPF
     MD5 check sum: ad5d885054e60f2e780f97f310f6a303
     Pseudo is Projector augmented-wave + core cor, Zval = 16.0
     Generated using "atomic" code by A. Dal Corso  v.5.0.2 svn rev. 9415
     Shape of augmentation charge: PSQ
     Using radial grid of 1191 points,  6 beta functions with:
                l(1) =   0
                l(2) =   0
                l(3) =   1
                l(4) =   1
                l(5) =   2
                l(6) =   2
     Q(r) pseudized with 0 coefficients

     PseudoPot. # 2 for  H read from file:
     /home/staff/ifeanyijohn.onuorah/pseudo/H.pbe-kjpaw_psl.0.1.UPF
     MD5 check sum: c439e23f70ca22dfb59b46f37ccc36ba
     Pseudo is Projector augmented-wave, Zval =  1.0
     Generated using "atomic" code by A. Dal Corso  v.5.0.2 svn rev. 9415
     Shape of augmentation charge: PSQ
     Using radial grid of  929 points,  2 beta functions with:
                l(1) =   0
                l(2) =   0
     Q(r) pseudized with 0 coefficients

     atomic species   valence    mass     pseudopotential
        Fe            16.00    56.00000     Fe( 1.00)
        H              1.00     1.00000      H( 1.00)

     Starting magnetic structure
     atomic species   magnetization
        Fe           0.500
        H            0.000

      4 Sym. Ops. (no inversion) found ( 2 have fractional translation)

                                    s                        frac. trans.

      isym =  1     identity

 cryst.   s( 1) = (     1          0          0      )
                  (     0          1          0      )
                  (     0          0          1      )

 cart.    s( 1) = (  1.0000000  0.0000000  0.0000000 )
                  (  0.0000000  1.0000000  0.0000000 )
                  (  0.0000000  0.0000000  1.0000000 )

      isym =  2     180 deg rotation - cart. axis [0,1,0]

 cryst.   s( 2) = (    -1          0          0      )    f =(  0.5000000 )
                  (     0          1          0      )       (  0.0000000 )
                  (     0          0         -1      )       (  0.0000000 )

 cart.    s( 2) = ( -1.0000000  0.0000000  0.0000000 )    f =(  0.5000000 )
                  (  0.0000000  1.0000000  0.0000000 )       (  0.0000000 )
                  (  0.0000000  0.0000000 -1.0000000 )       (  0.0000000 )

      isym =  3     inv. 180 deg rotation - cart. axis [0,0,1]

 cryst.   s( 3) = (     1          0          0      )
                  (     0          1          0      )
                  (     0          0         -1      )

 cart.    s( 3) = (  1.0000000  0.0000000  0.0000000 )
                  (  0.0000000  1.0000000  0.0000000 )
                  (  0.0000000  0.0000000 -1.0000000 )

      isym =  4     inv. 180 deg rotation - cart. axis [1,0,0]

 cryst.   s( 4) = (    -1          0          0      )    f =(  0.5000000 )
                  (     0          1          0      )       (  0.0000000 )
                  (     0          0          1      )       (  0.0000000 )

 cart.    s( 4) = ( -1.0000000  0.0000000  0.0000000 )    f =(  0.5000000 )
                  (  0.0000000  1.0000000  0.0000000 )       (  0.0000000 )
                  (  0.0000000  0.0000000  1.0000000 )       (  0.0000000 )

   Cartesian axes

     site n.     atom                  positions (alat units)
         1           Fe  tau(   1) = (   0.0000000   0.0000000   0.0000000  )
         2           Fe  tau(   2) = (   0.2499986   0.2499986   0.2499986  )
         3           Fe  tau(   3) = (   0.0000000   0.0000000   0.5000000  )
         4           Fe  tau(   4) = (   0.2499986   0.2499986   0.7500014  )
         5           Fe  tau(   5) = (   0.0000000   0.5000000   0.0000000  )
         6           Fe  tau(   6) = (   0.2499986   0.7500014   0.2499986  )
         7           Fe  tau(   7) = (   0.0000000   0.5000000   0.5000000  )
         8           Fe  tau(   8) = (   0.2499986   0.7500014   0.7500014  )
         9           Fe  tau(   9) = (   0.5000000   0.0000000   0.0000000  )
        10           Fe  tau(  10) = (   0.7500014   0.2499986   0.2499986  )
        11           Fe  tau(  11) = (   0.5000000   0.0000000   0.5000000  )
        12           Fe  tau(  12) = (   0.7500014   0.2499986   0.7500014  )
        13           Fe  tau(  13) = (   0.5000000   0.5000000   0.0000000  )
        14           Fe  tau(  14) = (   0.7500014   0.7500014   0.2499986  )
        15           Fe  tau(  15) = (   0.5000000   0.5000000   0.5000000  )
        16           Fe  tau(  16) = (   0.7500014   0.7500014   0.7500014  )
        17           H   tau(  17) = (   0.2499986   0.1249993   0.5000000  )

   Crystallographic axes

     site n.     atom                  positions (cryst. coord.)
         1           Fe  tau(   1) = (  0.0000000  0.0000000  0.0000000  )
         2           Fe  tau(   2) = (  0.2499986  0.2499986  0.2499986  )
         3           Fe  tau(   3) = (  0.0000000  0.0000000  0.5000000  )
         4           Fe  tau(   4) = (  0.2499986  0.2499986  0.7500014  )
         5           Fe  tau(   5) = (  0.0000000  0.5000000  0.0000000  )
         6           Fe  tau(   6) = (  0.2499986  0.7500014  0.2499986  )
         7           Fe  tau(   7) = (  0.0000000  0.5000000  0.5000000  )
         8           Fe  tau(   8) = (  0.2499986  0.7500014  0.7500014  )
         9           Fe  tau(   9) = (  0.5000000  0.0000000  0.0000000  )
        10           Fe  tau(  10) = (  0.7500014  0.2499986  0.2499986  )
        11           Fe  tau(  11) = (  0.5000000  0.0000000  0.5000000  )
        12           Fe  tau(  12) = (  0.7500014  0.2499986  0.7500014  )
        13           Fe  tau(  13) = (  0.5000000  0.5000000  0.0000000  )
        14           Fe  tau(  14) = (  0.7500014  0.7500014  0.2499986  )
        15           Fe  tau(  15) = (  0.5000000  0.5000000  0.5000000  )
        16           Fe  tau(  16) = (  0.7500014  0.7500014  0.7500014  )
        17           H   tau(  17) = (  0.2499986  0.1249993  0.5000000  )

     number of k points=    64  Marzari-Vanderbilt smearing, width (Ry)=  0.0050
                       cart. coord. in units 2pi/alat
        k(    1) = (   0.0000000   0.0000000   0.0000000), wk =   0.0029155
        k(    2) = (   0.0000000   0.0000000   0.1428571), wk =   0.0058309
        k(    3) = (   0.0000000   0.0000000   0.2857143), wk =   0.0058309
        k(    4) = (   0.0000000   0.0000000   0.4285714), wk =   0.0058309
        k(    5) = (   0.0000000   0.1428571   0.1428571), wk =   0.0116618
        k(    6) = (   0.0000000   0.1428571   0.2857143), wk =   0.0116618
        k(    7) = (   0.0000000   0.1428571   0.4285714), wk =   0.0116618
        k(    8) = (   0.0000000   0.2857143   0.2857143), wk =   0.0116618
        k(    9) = (   0.0000000   0.2857143   0.4285714), wk =   0.0116618
        k(   10) = (   0.0000000   0.4285714   0.4285714), wk =   0.0116618
        k(   11) = (   0.1428571   0.1428571   0.1428571), wk =   0.0233236
        k(   12) = (   0.1428571   0.1428571   0.2857143), wk =   0.0233236
        k(   13) = (   0.1428571   0.1428571   0.4285714), wk =   0.0233236
        k(   14) = (   0.1428571   0.2857143   0.2857143), wk =   0.0233236
        k(   15) = (   0.1428571   0.2857143   0.4285714), wk =   0.0233236
        k(   16) = (   0.1428571   0.4285714   0.4285714), wk =   0.0233236
        k(   17) = (   0.2857143   0.2857143   0.2857143), wk =   0.0233236
        k(   18) = (   0.2857143   0.2857143   0.4285714), wk =   0.0233236
        k(   19) = (   0.2857143   0.4285714   0.4285714), wk =   0.0233236
        k(   20) = (   0.4285714   0.4285714   0.4285714), wk =   0.0233236
        k(   21) = (   0.1428571   0.0000000   0.0000000), wk =   0.0058309
        k(   22) = (   0.0000000   0.1428571   0.0000000), wk =   0.0058309
        k(   23) = (   0.2857143   0.0000000   0.0000000), wk =   0.0058309
        k(   24) = (   0.0000000   0.2857143   0.0000000), wk =   0.0058309
        k(   25) = (   0.4285714   0.0000000   0.0000000), wk =   0.0058309
        k(   26) = (   0.0000000   0.4285714   0.0000000), wk =   0.0058309
        k(   27) = (   0.1428571   0.0000000  -0.1428571), wk =   0.0116618
        k(   28) = (   0.1428571  -0.1428571   0.0000000), wk =   0.0116618
        k(   29) = (   0.1428571   0.0000000  -0.2857143), wk =   0.0116618
        k(   30) = (   0.2857143  -0.1428571   0.0000000), wk =   0.0116618
        k(   31) = (   0.0000000   0.2857143   0.1428571), wk =   0.0116618
        k(   32) = (   0.1428571   0.2857143   0.0000000), wk =   0.0116618
        k(   33) = (   0.2857143   0.0000000   0.1428571), wk =   0.0116618
        k(   34) = (   0.1428571   0.0000000  -0.4285714), wk =   0.0116618
        k(   35) = (   0.4285714  -0.1428571   0.0000000), wk =   0.0116618
        k(   36) = (   0.0000000   0.4285714   0.1428571), wk =   0.0116618
        k(   37) = (   0.1428571   0.4285714   0.0000000), wk =   0.0116618
        k(   38) = (   0.4285714   0.0000000   0.1428571), wk =   0.0116618
        k(   39) = (   0.2857143   0.0000000  -0.2857143), wk =   0.0116618
[...]
   -33.4544 -33.4269 -33.3770 -33.3437 -33.3293 -33.3228 -33.3161 -33.3145
   -33.2951 -33.2924 -33.2790 -33.2758 -33.2688 -33.2636 -33.2538 -33.2366
   -33.2318 -33.2279 -33.2185 -33.2083 -33.1922 -33.1875 -33.1798 -33.1592
   -33.1476 -33.1096 -33.0956 -33.0799 -33.0609 -33.0493 -33.0445 -33.0349
   -33.0307 -33.0251 -33.0209 -33.0116 -33.0030 -32.9997 -32.9939 -32.9844
   -32.9815 -32.9700 -32.9674 -32.9638 -32.9611 -32.9586 -32.9368 -32.9326
     9.9200  12.2806  12.7150  13.0451  13.5116  13.9791  14.2367  14.5817
    15.1820  15.9034  15.9170  15.9550  15.9818  16.0189  16.0408  16.1100
    16.1157  16.2485  16.3305  16.4301  16.4990  16.5587  16.6061  16.6424
    16.6658  16.6815  16.7520  16.8011  16.8125  16.8417  16.8914  16.9187
    16.9387  17.0121  17.0193  17.0398  17.1176  17.1669  17.1989  17.2085
    17.2487  17.2781  17.3114  17.3292  17.4042  17.5403  17.5941  17.8530
    19.3484  19.4020  19.4564  19.5191  19.5534  19.6020  19.6423  19.6803
    19.7069  19.7287  19.7513  19.7714  19.7828  19.8109  19.8303  19.8393
    19.8746  19.9253  19.9892  20.0355  20.0418  20.1182  20.1406  20.1517
    20.1655  20.1785  20.2216  20.2263  20.2309  20.2589  20.2659  20.2876
    20.3794  20.3937  20.4427  20.4775  20.6067  20.9903  21.0394  21.5169
    23.4705  24.0195  24.2921

     occupation numbers
     1.0000   1.0000   1.0000   1.0000   1.0000   1.0000   1.0000   1.0000
     1.0000   1.0000   1.0000   1.0000   1.0000   1.0000   1.0000   1.0000
     1.0000   1.0000   1.0000   1.0000   1.0000   1.0000   1.0000   1.0000
     1.0000   1.0000   1.0000   1.0000   1.0000   1.0000   1.0000   1.0000
     1.0000   1.0000   1.0000   1.0000   1.0000   1.0000   1.0000   1.0000
     1.0000   1.0000   1.0000   1.0000   1.0000   1.0000   1.0000   1.0000
     1.0000   1.0000   1.0000   1.0000   1.0000   1.0000   1.0000   1.0000
     1.0000   1.0000   1.0000   1.0000   1.0000   1.0000   1.0000   1.0000
     1.0000   1.0000   1.0000   1.0000   1.0000   1.0000   1.0000   1.0000
     1.0000   1.0000   1.0000   1.0000   1.0000   1.0000   1.0000   1.0000
     1.0000   1.0000   1.0000   1.0000   1.0000   1.0000   1.0000   1.0000
     1.0000   1.0000   1.0000   1.0000   1.0000   1.0000   1.0000   1.0000
     1.0000   1.0000   1.0000   1.0000   1.0000   1.0000   1.0000   1.0000
     1.0000   1.0000   1.0000   1.0000   1.0000   1.0000   1.0000   1.0000
     0.0000   0.0000   0.0000   0.0000   0.0000   0.0000   0.0000   0.0000
     0.0000   0.0000   0.0000   0.0000   0.0000   0.0000   0.0000   0.0000
     0.0000   0.0000   0.0000   0.0000   0.0000   0.0000   0.0000   0.0000
     0.0000   0.0000   0.0000   0.0000   0.0000   0.0000   0.0000   0.0000
     0.0000   0.0000   0.0000   0.0000   0.0000   0.0000   0.0000   0.0000
     0.0000   0.0000   0.0000

     the Fermi energy is    18.4047 ev

!    total energy              =   -5269.49369494 Ry
     Harris-Foulkes estimate   =   -5269.49369494 Ry
     estimated scf accuracy    <          5.2E-10 Ry

     total all-electron energy =    -40730.238259 Ry

     The total energy is the sum of the following terms:

     one-electron contribution =   -1750.98289934 Ry
     hartree contribution      =    1046.19192449 Ry
     xc contribution           =    -558.21841280 Ry
     ewald contribution        =   -2788.03554580 Ry
     one-center paw contrib.   =   -1218.44852589 Ry
     smearing contrib. (-TS)   =      -0.00023560 Ry

     total magnetization       =    34.98 Bohr mag/cell
     absolute magnetization    =    36.86 Bohr mag/cell

     convergence has been achieved in   8 iterations

     negative rho (up, down):  0.000E+00 4.680E-04

     Forces acting on atoms (Ry/au):

     atom    1 type  1   force =    -0.00011135    0.00024554    0.00000000
     atom    2 type  1   force =     0.00000000   -0.00003101    0.00031890
     atom    3 type  1   force =     0.00031920    0.00002590    0.00000000
     atom    4 type  1   force =     0.00000000   -0.00003101   -0.00031890
     atom    5 type  1   force =     0.00039160    0.00039766    0.00000000
     atom    6 type  1   force =     0.00000000    0.00050741    0.00022854
     atom    7 type  1   force =     0.00022684   -0.00050063    0.00000000
     atom    8 type  1   force =     0.00000000    0.00050741   -0.00022854
     atom    9 type  1   force =     0.00011135    0.00024554    0.00000000
     atom   10 type  1   force =     0.00000000   -0.00025330   -0.00010895
     atom   11 type  1   force =    -0.00031920    0.00002590    0.00000000
     atom   12 type  1   force =     0.00000000   -0.00025330    0.00010895
     atom   13 type  1   force =    -0.00039160    0.00039766    0.00000000
     atom   14 type  1   force =     0.00000000   -0.00039120    0.00039110
     atom   15 type  1   force =    -0.00022684   -0.00050063    0.00000000
     atom   16 type  1   force =     0.00000000   -0.00039120   -0.00039110
     atom   17 type  2   force =     0.00000000   -0.00000072    0.00000000
     The non-local contrib.  to forces
     atom    1 type  1   force =     0.00191693    0.00190351    0.00000000
     atom    2 type  1   force =     0.00000000   -0.06812712    0.17897833
     atom    3 type  1   force =     0.17897664    0.06812717    0.00000000
     atom    4 type  1   force =     0.00000000   -0.06812712   -0.17897833
     atom    5 type  1   force =     0.00467719   -0.00264187    0.00000000
     atom    6 type  1   force =     0.00000000    0.03263844    0.01460854
     atom    7 type  1   force =     0.01460750   -0.03264379    0.00000000
     atom    8 type  1   force =     0.00000000    0.03263844   -0.01460854
     atom    9 type  1   force =    -0.00191693    0.00190351    0.00000000
     atom   10 type  1   force =     0.00000000   -0.00190199    0.00191887
     atom   11 type  1   force =    -0.17897664    0.06812717    0.00000000
     atom   12 type  1   force =     0.00000000   -0.00190199   -0.00191887
     atom   13 type  1   force =    -0.00467719   -0.00264187    0.00000000
     atom   14 type  1   force =     0.00000000    0.00264292    0.00467759
     atom   15 type  1   force =    -0.01460750   -0.03264379    0.00000000
     atom   16 type  1   force =     0.00000000    0.00264292   -0.00467759
     atom   17 type  2   force =     0.00000000    0.00000006    0.00000000
     The ionic contribution  to forces
     atom    1 type  1   force =     0.78255282    0.07523327    0.00000003
     atom    2 type  1   force =     0.00094213   -1.65050471    3.31458367
     atom    3 type  1   force =     3.31460725    1.64952443   -0.00000002
     atom    4 type  1   force =     0.00094213   -1.65050471   -3.31458368
     atom    5 type  1   force =    -0.16759988    0.12745129    0.00000003
     atom    6 type  1   force =     0.00095049    1.52368658    1.54274778
     atom    7 type  1   force =     1.54280343   -1.52227383   -0.00000002
     atom    8 type  1   force =     0.00095049    1.52368658   -1.54274779
     atom    9 type  1   force =    -0.78256832    0.07524559    0.00000003
     atom   10 type  1   force =    -0.00092459   -0.07673322    0.78255121
     atom   11 type  1   force =    -3.31473126    1.64952150   -0.00000002
     atom   12 type  1   force =    -0.00092459   -0.07673322   -0.78255122
     atom   13 type  1   force =     0.16757186    0.12743502    0.00000003
     atom   14 type  1   force =    -0.00092652   -0.12635513   -0.16770458
     atom   15 type  1   force =    -1.54281156   -1.52226617   -0.00000002
     atom   16 type  1   force =    -0.00092652   -0.12635513    0.16770457
     atom   17 type  2   force =     0.00009262   -0.00005812    0.00000000
     The local contribution  to forces
     atom    1 type  1   force =    -0.78465796   -0.07696341    0.00000000
     atom    2 type  1   force =     0.00270596    1.72007737   -3.49500105
     atom    3 type  1   force =    -3.49508929   -1.71910437   -0.00000017
     atom    4 type  1   force =     0.00270596    1.72007737    3.49500072
     atom    5 type  1   force =     0.16363920   -0.12453410    0.00000000
     atom    6 type  1   force =     0.00268750   -1.55687402   -1.55780279
     atom    7 type  1   force =    -1.55786997    1.55547133   -0.00000016
     atom    8 type  1   force =     0.00268750   -1.55687402    1.55780246
     atom    9 type  1   force =     0.78465796   -0.07696341    0.00000000
     atom   10 type  1   force =    -0.00271577    0.07844314   -0.78464010
     atom   11 type  1   force =     3.49508929   -1.71910437   -0.00000017
     atom   12 type  1   force =    -0.00271577    0.07844314    0.78463977
     atom   13 type  1   force =    -0.16363920   -0.12453410    0.00000000
     atom   14 type  1   force =    -0.00271049    0.12345521    0.16376405
     atom   15 type  1   force =     1.55786997    1.55547133   -0.00000016
     atom   16 type  1   force =    -0.00271049    0.12345521   -0.16376438
     atom   17 type  2   force =    -0.00000047    0.00005657    0.00000000
     The core correction contribution to forces
     atom    1 type  1   force =     0.00005609    0.00006192    0.00000000
     atom    2 type  1   force =    -0.00009902   -0.00144861    0.00172019
     atom    3 type  1   force =     0.00172004    0.00144868    0.00000001
     atom    4 type  1   force =    -0.00009902   -0.00144861   -0.00172017
     atom    5 type  1   force =    -0.00032876    0.00014588    0.00000000
     atom    6 type  1   force =    -0.00009872    0.00102721    0.00065638
     atom    7 type  1   force =     0.00065646   -0.00102670    0.00000001
     atom    8 type  1   force =    -0.00009872    0.00102721   -0.00065637
     atom    9 type  1   force =    -0.00005609    0.00006192    0.00000000
     atom   10 type  1   force =     0.00009889   -0.00006255    0.00005622
     atom   11 type  1   force =    -0.00172004    0.00144868    0.00000001
     atom   12 type  1   force =     0.00009889   -0.00006255   -0.00005621
     atom   13 type  1   force =     0.00032876    0.00014588    0.00000000
     atom   14 type  1   force =     0.00009896   -0.00014604   -0.00032877
     atom   15 type  1   force =    -0.00065646   -0.00102670    0.00000001
     atom   16 type  1   force =     0.00009896   -0.00014604    0.00032878
     atom   17 type  2   force =     0.00000000    0.00000000    0.00000000
     The Hubbard contrib.    to forces
     atom    1 type  1   force =     0.00000000    0.00000000    0.00000000
     atom    2 type  1   force =     0.00000000    0.00000000    0.00000000
     atom    3 type  1   force =     0.00000000    0.00000000    0.00000000
     atom    4 type  1   force =     0.00000000    0.00000000    0.00000000
     atom    5 type  1   force =     0.00000000    0.00000000    0.00000000
     atom    6 type  1   force =     0.00000000    0.00000000    0.00000000
     atom    7 type  1   force =     0.00000000    0.00000000    0.00000000
     atom    8 type  1   force =     0.00000000    0.00000000    0.00000000
     atom    9 type  1   force =     0.00000000    0.00000000    0.00000000
     atom   10 type  1   force =     0.00000000    0.00000000    0.00000000
     atom   11 type  1   force =     0.00000000    0.00000000    0.00000000
     atom   12 type  1   force =     0.00000000    0.00000000    0.00000000
     atom   13 type  1   force =     0.00000000    0.00000000    0.00000000
     atom   14 type  1   force =     0.00000000    0.00000000    0.00000000
     atom   15 type  1   force =     0.00000000    0.00000000    0.00000000
     atom   16 type  1   force =     0.00000000    0.00000000    0.00000000
     atom   17 type  2   force =     0.00000000    0.00000000    0.00000000
     The SCF correction term to forces
     atom    1 type  1   force =     0.00001302    0.00000388    0.00000000
     atom    2 type  1   force =     0.00000000   -0.00002814    0.00003760
     atom    3 type  1   force =     0.00004259    0.00003127    0.00000000
     atom    4 type  1   force =     0.00000000   -0.00002814   -0.00003760
     atom    5 type  1   force =    -0.00001020   -0.00001558    0.00000000
     atom    6 type  1   force =     0.00000000    0.00002899    0.00001846
     atom    7 type  1   force =     0.00002536   -0.00003169    0.00000000
     atom    8 type  1   force =     0.00000000    0.00002899   -0.00001846
     atom    9 type  1   force =    -0.00001301    0.00000390    0.00000000
     atom   10 type  1   force =     0.00000000    0.00000112    0.00000469
     atom   11 type  1   force =    -0.00004251    0.00003121    0.00000000
     atom   12 type  1   force =     0.00000000    0.00000112   -0.00000469
     atom   13 type  1   force =     0.00001011   -0.00001564    0.00000000
     atom   14 type  1   force =     0.00000000    0.00001163   -0.00001735
     atom   15 type  1   force =    -0.00002536   -0.00003167    0.00000000
     atom   16 type  1   force =     0.00000000    0.00001163    0.00001735
     atom   17 type  2   force =     0.00000000    0.00000057    0.00000000

     Total force =     0.001779     Total SCF correction =     0.000133

     entering subroutine stress ...

     negative rho (up, down):  0.000E+00 4.680E-04
          total   stress  (Ry/bohr**3)                   (kbar)     P=   40.08
   0.00028151   0.00000000   0.00000000         41.41      0.00      0.00
   0.00000000   0.00025426   0.00000000          0.00     37.40      0.00
   0.00000000   0.00000000   0.00028151          0.00      0.00     41.41

     kinetic stress (kbar)  82258.69      0.00      0.00
                                0.00  82263.68      0.00
                                0.00      0.00  82258.69

     local   stress (kbar)  70750.14      0.00      0.00
                                0.00  71177.56      0.00
                                0.00      0.00  70750.14

     nonloc. stress (kbar) -64238.31      0.00      0.00
                                0.00 -64217.99      0.00
                                0.00      0.00 -64238.31

     hartree stress (kbar)  41803.55      0.00      0.00
                                0.00  41680.55      0.00
                                0.00      0.00  41803.56

     exc-cor stress (kbar)  -2637.67      0.00      0.00
                                0.00  -2638.60      0.00
                                0.00      0.00  -2637.67

     corecor stress (kbar) -16711.39      0.00      0.00
                                0.00 -16711.28      0.00
                                0.00      0.00 -16711.39

     ewald   stress (kbar)-111183.60      0.00      0.00
                                0.00-111516.51      0.00
                                0.00      0.00-111183.59

     hubbard stress (kbar)      0.00      0.00      0.00
                                0.00      0.00      0.00
                                0.00      0.00      0.00

     london  stress (kbar)      0.00      0.00      0.00
                                0.00      0.00      0.00
                                0.00      0.00      0.00

     XDM     stress (kbar)      0.00      0.00      0.00
                                0.00      0.00      0.00
                                0.00      0.00      0.00

     dft-nl  stress (kbar)      0.00      0.00      0.00
                                0.00      0.00      0.00
                                0.00      0.00      0.00

     TS-vdW  stress (kbar)      0.00      0.00      0.00
                                0.00      0.00      0.00
                                0.00      0.00      0.00

     bfgs converged in   6 scf cycles and   5 bfgs steps
     (criteria: energy <  1.0E-04, force <  1.0E-03)

     End of BFGS Geometry Optimization

     Final energy   =   -5269.4936949436 Ry
Begin final coordinates

ATOMIC_POSITIONS (angstrom)
Fe      -0.006765577  -0.003627915   0.000000000
Fe       1.416822755   1.448670073   1.357067248
Fe      -0.059763553  -0.031838550   2.833661872
Fe       1.416822755   1.448670073   4.310256496
Fe      -0.009197338   2.843406005   0.000000000
Fe       1.416822755   4.246025138   1.409409869
Fe      -0.007419546   2.838109126   2.833661872
Fe       1.416822755   4.246025138   4.257913875
Fe       2.840427449  -0.003627915   0.000000000
Fe       4.250500989   1.420477785   1.410067035
Fe       2.893425425  -0.031838550   2.833661872
Fe       4.250500989   1.420477785   4.257256709
Fe       2.842859210   2.843406005   0.000000000
Fe       4.250500989   4.240744791   1.407636079
Fe       2.841081418   2.838109126   2.833661872
Fe       4.250500989   4.240744791   4.259687665
H        1.416822755   0.708420935   2.833661872
End final coordinates

     Writing output data file Fe_relaxHt.save

     General routines

     Parallel routines

     PAW routines

   This run was terminated on:  14:58:50  12May2016

   JOB DONE.