     Program PWSCF v.6.7MaX starts on 17Jan2023 at 21:41:55

     K-points division:     npool     =       4
     R & G space division:  proc/nbgrp/npool/nimage =       6
     Reading input from 1x1x1.in
Warning: card &CELL ignored
Warning: card    CELL_DYNAMICS = 'BFGS', ignored
Warning: card    CELL_FACTOR=1.5 ignored
Warning: card    PRESS = 0.0 ignored
Warning: card / ignored

     Current dimensions of program PWSCF are:
     Max number of different atomic species (ntypx) = 10
     Max number of k-points (npk) =  40000
     Max angular momentum in pseudopotentials (lmaxx) =  3

     Subspace diagonalization in iterative solution of the eigenvalue problem:
     a serial algorithm will be used

     Message from routine setup:
     using ibrav=0 with symmetry is DISCOURAGED, use correct ibrav instead

     bravais-lattice index     =            0
     lattice parameter (alat)  =       7.6841  a.u.
     unit-cell volume          =     453.7082 (a.u.)^3
     number of atoms/cell      =            9
     number of atomic types    =            3
     number of electrons       =        40.00
     number of Kohn-Sham states=           24
     kinetic-energy cutoff     =      60.0000  Ry
     charge density cutoff     =     480.0000  Ry
     scf convergence threshold =      1.0E-07
     mixing beta               =       0.3000
     number of iterations used =            8  plain     mixing
     Exchange-correlation= PBE
                           (   1   4   3   4   0   0   0)

     celldm(1)=   7.684086  celldm(2)=   0.000000  celldm(3)=   0.000000
     celldm(4)=   0.000000  celldm(5)=   0.000000  celldm(6)=   0.000000

     crystal axes: (cart. coord. in units of alat)
               a(1) = (   1.000000   0.000000   0.000000 )
               a(2) = (   0.000000   1.000000   0.000000 )
               a(3) = (   0.000000   0.000000   1.000000 )

     reciprocal axes: (cart. coord. in units 2 pi/alat)
               b(1) = (  1.000000  0.000000  0.000000 )
               b(2) = (  0.000000  1.000000  0.000000 )
               b(3) = (  0.000000  0.000000  1.000000 )

     PseudoPot. # 1 for Li read from file:
     /home/vol07/scarf497/pseudo/li_pbe_v1.4.uspp.F.UPF
     MD5 check sum: e912e257baa3777c20ea3d68f190483c
     Pseudo is Ultrasoft, Zval =  3.0
     Generated by new atomic code, or converted to UPF format
     Using radial grid of  751 points,  5 beta functions with:
                l(1) =   0
                l(2) =   0
                l(3) =   0
                l(4) =   1
                l(5) =   1
     Q(r) pseudized with 10 coefficients,  rinner =    1.150   1.150   1.150

     PseudoPot. # 2 for F  read from file:
     /home/vol07/scarf497/pseudo/f_pbe_v1.4.uspp.F.UPF
     MD5 check sum: 4c38b6a325caf53ec0e86aed9459de46
     Pseudo is Ultrasoft, Zval =  7.0
     Generated by new atomic code, or converted to UPF format
     Using radial grid of  799 points,  4 beta functions with:
                l(1) =   0
                l(2) =   0
                l(3) =   1
                l(4) =   1
     Q(r) pseudized with  8 coefficients,  rinner =    0.950   0.950   0.950

     PseudoPot. # 3 for H  read from file:
     /home/vol07/scarf497/pseudo/H.pbe-rrkjus_psl.1.0.0.UPF
     MD5 check sum: f52b6d4d1c606e5624b1dc7b2218f220
     Pseudo is Ultrasoft, Zval =  1.0
     Generated using "atomic" code by A. Dal Corso  v.5.1
     Using radial grid of  929 points,  2 beta functions with:
                l(1) =   0
                l(2) =   0
     Q(r) pseudized with 0 coefficients

     atomic species   valence    mass     pseudopotential
        Li             3.00     6.94100     Li( 1.00)
        F              7.00    18.99840     F ( 1.00)
        H              1.00     1.00794     H ( 1.00)

      8 Sym. Ops., with inversion, found ( 4 have fractional translation)

                                    s                        frac. trans.

      isym =  1     identity

 cryst.   s( 1) = (     1          0          0      )
                  (     0          1          0      )
                  (     0          0          1      )

 cart.    s( 1) = (  1.0000000  0.0000000  0.0000000 )
                  (  0.0000000  1.0000000  0.0000000 )
                  (  0.0000000  0.0000000  1.0000000 )

      isym =  2     180 deg rotation - cart. axis [0,0,1]

 cryst.   s( 2) = (    -1          0          0      )    f =(  0.5000000 )
                  (     0         -1          0      )       (  0.5000000 )
                  (     0          0          1      )       (  0.0000000 )

 cart.    s( 2) = ( -1.0000000  0.0000000  0.0000000 )    f =(  0.5000000 )
                  (  0.0000000 -1.0000000  0.0000000 )       (  0.5000000 )
                  (  0.0000000  0.0000000  1.0000000 )       (  0.0000000 )

[...]

      isym =  4     180 deg rotation - cart. axis [1,-1,0]

[...]

      isym =  5     inversion

[...]

      isym =  6     inv. 180 deg rotation - cart. axis [0,0,1]

[...]

 cryst.   s( 7) = (     0         -1          0      )    f =(  0.5000000 )
                  (    -1          0          0      )       (  0.5000000 )
                  (     0          0          1      )       (  0.0000000 )

 cart.    s( 7) = (  0.0000000 -1.0000000  0.0000000 )    f =(  0.5000000 )
                  ( -1.0000000  0.0000000  0.0000000 )       (  0.5000000 )
                  (  0.0000000  0.0000000  1.0000000 )       (  0.0000000 )

      isym =  8     inv. 180 deg rotation - cart. axis [1,-1,0]

 cryst.   s( 8) = (     0          1          0      )
                  (     1          0          0      )
                  (     0          0          1      )

 cart.    s( 8) = (  0.0000000  1.0000000  0.0000000 )
                  (  1.0000000  0.0000000  0.0000000 )
                  (  0.0000000  0.0000000  1.0000000 )

   Cartesian axes

     site n.     atom                  positions (alat units)
         1           Li  tau(   1) = (   0.0000000   0.0000000   0.0000000  )
         2           Li  tau(   2) = (   0.0000000   0.5000000   0.5000000  )
         3           Li  tau(   3) = (   0.5000000   0.0000000   0.5000000  )
         4           Li  tau(   4) = (   0.5000000   0.5000000   0.0000000  )
         5           F   tau(   5) = (   0.5000000   0.5000000   0.5000000  )
         6           F   tau(   6) = (   0.5000000   0.0000000   0.0000000  )
         7           F   tau(   7) = (   0.0000000   0.5000000   0.0000000  )
         8           F   tau(   8) = (   0.0000000   0.0000000   0.5000000  )
         9           H   tau(   9) = (   0.2500000   0.2500000   0.5000000  )

   Crystallographic axes

     site n.     atom                  positions (cryst. coord.)
         1           Li  tau(   1) = (  0.0000000  0.0000000  0.0000000  )
         2           Li  tau(   2) = (  0.0000000  0.5000000  0.5000000  )
         3           Li  tau(   3) = (  0.5000000  0.0000000  0.5000000  )
         4           Li  tau(   4) = (  0.5000000  0.5000000  0.0000000  )
         5           F   tau(   5) = (  0.5000000  0.5000000  0.5000000  )
         6           F   tau(   6) = (  0.5000000  0.0000000  0.0000000  )
         7           F   tau(   7) = (  0.0000000  0.5000000  0.0000000  )
         8           F   tau(   8) = (  0.0000000  0.0000000  0.5000000  )
         9           H   tau(   9) = (  0.2500000  0.2500000  0.5000000  )

     number of k points=   301  Marzari-Vanderbilt smearing, width (Ry)=  0.0100
                       cart. coord. in units 2pi/alat
        k(    1) = (   0.0000000   0.0000000   0.0000000), wk =   0.0011574
        k(    2) = (   0.0000000   0.0000000   0.0833333), wk =   0.0023148
        k(    3) = (   0.0000000   0.0000000   0.1666667), wk =   0.0023148
        k(    4) = (   0.0000000   0.0000000   0.2500000), wk =   0.0023148
        k(    5) = (   0.0000000   0.0000000   0.3333333), wk =   0.0023148
        k(    6) = (   0.0000000   0.0000000   0.4166667), wk =   0.0023148
        k(    7) = (   0.0000000   0.0000000  -0.5000000), wk =   0.0011574
        k(    8) = (   0.0000000   0.0833333   0.0833333), wk =   0.0092593
        k(    9) = (   0.0000000   0.0833333   0.1666667), wk =   0.0092593
        k(   10) = (   0.0000000   0.0833333   0.2500000), wk =   0.0092593
        k(   11) = (   0.0000000   0.0833333   0.3333333), wk =   0.0092593
        k(   12) = (   0.0000000   0.0833333   0.4166667), wk =   0.0092593
        k(   13) = (   0.0000000   0.0833333  -0.5000000), wk =   0.0046296
        k(   14) = (   0.0000000   0.1666667   0.1666667), wk =   0.0092593
        k(   15) = (   0.0000000   0.1666667   0.2500000), wk =   0.0092593
        k(   16) = (   0.0000000   0.1666667   0.3333333), wk =   0.0092593
        k(   17) = (   0.0000000   0.1666667   0.4166667), wk =   0.0092593
        k(   18) = (   0.0000000   0.1666667  -0.5000000), wk =   0.0046296
        k(   19) = (   0.0000000   0.2500000   0.2500000), wk =   0.0092593
        k(   20) = (   0.0000000   0.2500000   0.3333333), wk =   0.0092593
        k(   21) = (   0.0000000   0.2500000   0.4166667), wk =   0.0092593
        k(   22) = (   0.0000000   0.2500000  -0.5000000), wk =   0.0046296
        k(   23) = (   0.0000000   0.3333333   0.3333333), wk =   0.0092593
        k(   24) = (   0.0000000   0.3333333   0.4166667), wk =   0.0092593
        k(   25) = (   0.0000000   0.3333333  -0.5000000), wk =   0.0046296
        k(   26) = (   0.0000000   0.4166667   0.4166667), wk =   0.0092593
        k(   27) = (   0.0000000   0.4166667  -0.5000000), wk =   0.0046296
        k(   28) = (   0.0000000  -0.5000000  -0.5000000), wk =   0.0023148
        k(   29) = (   0.0833333   0.0833333   0.0833333), wk =   0.0046296
        k(   30) = (   0.0833333   0.0833333   0.1666667), wk =   0.0046296
        k(   31) = (   0.0833333   0.0833333   0.2500000), wk =   0.0046296
        k(   32) = (   0.0833333   0.0833333   0.3333333), wk =   0.0046296
        k(   33) = (   0.0833333   0.0833333   0.4166667), wk =   0.0046296
        k(   34) = (   0.0833333   0.0833333  -0.5000000), wk =   0.0023148
        k(   35) = (   0.0833333   0.1666667   0.1666667), wk =   0.0092593
        k(   36) = (   0.0833333   0.1666667   0.2500000), wk =   0.0092593
        k(   37) = (   0.0833333   0.1666667   0.3333333), wk =   0.0092593
        k(   38) = (   0.0833333   0.1666667   0.4166667), wk =   0.0092593
        k(   39) = (   0.0833333   0.1666667  -0.5000000), wk =   0.0046296
        k(   40) = (   0.0833333   0.2500000   0.2500000), wk =   0.0092593
        k(   41) = (   0.0833333   0.2500000   0.3333333), wk =   0.0092593
        k(   42) = (   0.0833333   0.2500000   0.4166667), wk =   0.0092593
        k(   43) = (   0.0833333   0.2500000  -0.5000000), wk =   0.0046296
        k(   44) = (   0.0833333   0.3333333   0.3333333), wk =   0.0092593
        k(   45) = (   0.0833333   0.3333333   0.4166667), wk =   0.0092593
        k(   46) = (   0.0833333   0.3333333  -0.5000000), wk =   0.0046296
        k(   47) = (   0.0833333   0.4166667   0.4166667), wk =   0.0092593
        k(   48) = (   0.0833333   0.4166667  -0.5000000), wk =   0.0046296
[...]
        k(  296) = (  -0.3333333   0.4166667   0.5000000), wk =   0.0046296
        k(  297) = (  -0.5000000   0.5000000   0.3333333), wk =   0.0023148
        k(  298) = (   0.4166667  -0.4166667   0.4166667), wk =   0.0046296
        k(  299) = (  -0.5000000  -0.4166667   0.4166667), wk =   0.0092593
        k(  300) = (  -0.4166667   0.4166667   0.5000000), wk =   0.0023148
        k(  301) = (  -0.5000000   0.5000000   0.4166667), wk =   0.0023148

                       cryst. coord.
        k(    1) = (   0.0000000   0.0000000   0.0000000), wk =   0.0011574
        k(    2) = (   0.0000000   0.0000000   0.0833333), wk =   0.0023148
        k(    3) = (   0.0000000   0.0000000   0.1666667), wk =   0.0023148
        k(    4) = (   0.0000000   0.0000000   0.2500000), wk =   0.0023148
        k(    5) = (   0.0000000   0.0000000   0.3333333), wk =   0.0023148
        k(    6) = (   0.0000000   0.0000000   0.4166667), wk =   0.0023148
        k(    7) = (   0.0000000   0.0000000  -0.5000000), wk =   0.0011574
        k(    8) = (   0.0000000   0.0833333   0.0833333), wk =   0.0092593
        k(    9) = (   0.0000000   0.0833333   0.1666667), wk =   0.0092593
        k(   10) = (   0.0000000   0.0833333   0.2500000), wk =   0.0092593
        k(   11) = (   0.0000000   0.0833333   0.3333333), wk =   0.0092593
        k(   12) = (   0.0000000   0.0833333   0.4166667), wk =   0.0092593
        k(   13) = (   0.0000000   0.0833333  -0.5000000), wk =   0.0046296
        k(   14) = (   0.0000000   0.1666667   0.1666667), wk =   0.0092593
        k(   15) = (   0.0000000   0.1666667   0.2500000), wk =   0.0092593
        k(   16) = (   0.0000000   0.1666667   0.3333333), wk =   0.0092593
        k(   17) = (   0.0000000   0.1666667   0.4166667), wk =   0.0092593
        k(   18) = (   0.0000000   0.1666667  -0.5000000), wk =   0.0046296
        k(   19) = (   0.0000000   0.2500000   0.2500000), wk =   0.0092593
        k(   20) = (   0.0000000   0.2500000   0.3333333), wk =   0.0092593
        k(   21) = (   0.0000000   0.2500000   0.4166667), wk =   0.0092593
        k(   22) = (   0.0000000   0.2500000  -0.5000000), wk =   0.0046296
        k(   23) = (   0.0000000   0.3333333   0.3333333), wk =   0.0092593
        k(   24) = (   0.0000000   0.3333333   0.4166667), wk =   0.0092593
        k(   25) = (   0.0000000   0.3333333  -0.5000000), wk =   0.0046296
        k(   26) = (   0.0000000   0.4166667   0.4166667), wk =   0.0092593
        k(   27) = (   0.0000000   0.4166667  -0.5000000), wk =   0.0046296
        k(   28) = (   0.0000000  -0.5000000  -0.5000000), wk =   0.0023148
        k(   29) = (   0.0833333   0.0833333   0.0833333), wk =   0.0046296
        k(   30) = (   0.0833333   0.0833333   0.1666667), wk =   0.0046296
        k(   31) = (   0.0833333   0.0833333   0.2500000), wk =   0.0046296
        k(   32) = (   0.0833333   0.0833333   0.3333333), wk =   0.0046296
        k(   33) = (   0.0833333   0.0833333   0.4166667), wk =   0.0046296
        k(   34) = (   0.0833333   0.0833333  -0.5000000), wk =   0.0023148
        k(   35) = (   0.0833333   0.1666667   0.1666667), wk =   0.0092593
        k(   36) = (   0.0833333   0.1666667   0.2500000), wk =   0.0092593
        k(   37) = (   0.0833333   0.1666667   0.3333333), wk =   0.0092593
        k(   38) = (   0.0833333   0.1666667   0.4166667), wk =   0.0092593
        k(   39) = (   0.0833333   0.1666667  -0.5000000), wk =   0.0046296
        k(   40) = (   0.0833333   0.2500000   0.2500000), wk =   0.0092593
        k(   41) = (   0.0833333   0.2500000   0.3333333), wk =   0.0092593
        k(   42) = (   0.0833333   0.2500000   0.4166667), wk =   0.0092593
        k(   43) = (   0.0833333   0.2500000  -0.5000000), wk =   0.0046296
        k(   44) = (   0.0833333   0.3333333   0.3333333), wk =   0.0092593
        k(   45) = (   0.0833333   0.3333333   0.4166667), wk =   0.0092593
        k(   46) = (   0.0833333   0.3333333  -0.5000000), wk =   0.0046296
        k(   47) = (   0.0833333   0.4166667   0.4166667), wk =   0.0092593
        k(   48) = (   0.0833333   0.4166667  -0.5000000), wk =   0.0046296
        k(   49) = (   0.0833333  -0.5000000  -0.5000000), wk =   0.0046296
        k(   50) = (   0.1666667   0.1666667   0.1666667), wk =   0.0046296
        k(   51) = (   0.1666667   0.1666667   0.2500000), wk =   0.0046296
        k(   52) = (   0.1666667   0.1666667   0.3333333), wk =   0.0046296
        k(   53) = (   0.1666667   0.1666667   0.4166667), wk =   0.0046296
        k(   54) = (   0.1666667   0.1666667  -0.5000000), wk =   0.0023148
        k(   55) = (   0.1666667   0.2500000   0.2500000), wk =   0.0092593
        k(   56) = (   0.1666667   0.2500000   0.3333333), wk =   0.0092593
        k(   57) = (   0.1666667   0.2500000   0.4166667), wk =   0.0092593
        k(   58) = (   0.1666667   0.2500000  -0.5000000), wk =   0.0046296
        k(   59) = (   0.1666667   0.3333333   0.3333333), wk =   0.0092593
        k(   60) = (   0.1666667   0.3333333   0.4166667), wk =   0.0092593
[...]
        k(  287) = (  -0.4166667  -0.3333333  -0.3333333), wk =   0.0092593
        k(  288) = (  -0.3333333   0.3333333  -0.4166667), wk =   0.0046296
        k(  289) = (  -0.5000000  -0.3333333   0.3333333), wk =   0.0092593
        k(  290) = (  -0.3333333   0.3333333   0.5000000), wk =   0.0023148
        k(  291) = (   0.4166667  -0.4166667   0.3333333), wk =   0.0046296
        k(  292) = (  -0.4166667  -0.4166667  -0.3333333), wk =   0.0046296
        k(  293) = (  -0.3333333   0.4166667   0.4166667), wk =   0.0092593
        k(  294) = (  -0.5000000  -0.4166667   0.3333333), wk =   0.0092593
        k(  295) = (  -0.3333333  -0.5000000   0.4166667), wk =   0.0092593
        k(  296) = (  -0.3333333   0.4166667   0.5000000), wk =   0.0046296
        k(  297) = (  -0.5000000   0.5000000   0.3333333), wk =   0.0023148
        k(  298) = (   0.4166667  -0.4166667   0.4166667), wk =   0.0046296
        k(  299) = (  -0.5000000  -0.4166667   0.4166667), wk =   0.0092593
        k(  300) = (  -0.4166667   0.4166667   0.5000000), wk =   0.0023148
        k(  301) = (  -0.5000000   0.5000000   0.4166667), wk =   0.0023148

     Initial potential from superposition of free atoms

     starting charge   39.19702, renormalised to   40.00000
     Starting wfcs are   37 randomized atomic wfcs

     Self-consistent Calculation

     iteration #  1     ecut=    60.00 Ry     beta= 0.30
     Davidson diagonalization with overlap
     ethr =  1.00E-02,  avg # of iterations =  2.0

     Threshold (ethr) on eigenvalues was too large:
     Diagonalizing with lowered threshold

     Davidson diagonalization with overlap
     ethr =  4.38E-04,  avg # of iterations =  2.0

     total energy              =    -254.70604820 Ry
     estimated scf accuracy    <       0.16686727 Ry

[...]

     total energy              =    -254.71253132 Ry
     estimated scf accuracy    <       0.00000211 Ry

     iteration #  8     ecut=    60.00 Ry     beta= 0.30
     Davidson diagonalization with overlap
     ethr =  5.27E-09,  avg # of iterations =  2.0

     End of self-consistent calculation

          k = 0.0000 0.0000 0.0000 (  3575 PWs)   bands (ev):

   -40.4927 -40.4498 -38.9807 -38.9485 -20.5403 -20.0619 -17.8366 -17.5503
    -5.0993  -2.5770  -2.4967  -1.8315  -1.3033  -1.1270  -0.0090   0.1666
     0.6005   0.8222   1.3159   1.3159   5.8510  11.5730  14.9089  15.5231

     occupation numbers
     1.0000   1.0000   1.0000   1.0000   1.0000   1.0000   1.0000   1.0000
     1.0000   1.0000   1.0000   1.0000   1.0000   1.0000   1.0000   1.0000
     1.0000   1.0000   1.0820   1.0820   0.0000   0.0000   0.0000   0.0000

[...]

          k =-0.5000-0.5000-0.5000 (  3544 PWs)   bands (ev):

[...]

          k = 0.4167-0.4167 0.4167 (  3551 PWs)   bands (ev):

[...]

          k =-0.5000 0.5000 0.4167 (  3548 PWs)   bands (ev):

   -40.4720 -40.4634 -38.9619 -38.9617 -20.4547 -20.2762 -17.7955 -17.7908
    -4.7934  -2.3919  -1.8675  -1.7871  -1.5519  -0.7595   0.4744   0.5095
     0.7956   0.8986   1.4820   1.5110   5.3577  11.5584  11.6062  12.1707

     occupation numbers
     1.0000   1.0000   1.0000   1.0000   1.0000   1.0000   1.0000   1.0000
     1.0000   1.0000   1.0000   1.0000   1.0000   1.0000   1.0000   1.0000
     1.0000   1.0000   0.5977   0.4405   0.0000   0.0000   0.0000   0.0000

     the Fermi energy is     1.5187 ev

!    total energy              =    -254.71253189 Ry
     estimated scf accuracy    <       0.00000009 Ry
     smearing contrib. (-TS)   =       0.00166490 Ry
     internal energy E=F+TS    =    -254.71419679 Ry

     The total energy is F=E-TS. E is the sum of the following terms:
     one-electron contribution =    -108.92677760 Ry
     hartree contribution      =      69.86380287 Ry
     xc contribution           =     -51.51317497 Ry
     ewald contribution        =    -164.13804709 Ry

     convergence has been achieved in   8 iterations

     Forces acting on atoms (cartesian axes, Ry/au):

     atom    1 type  1   force =    -0.00544229   -0.00544229    0.00000000
     atom    2 type  1   force =    -0.07248668    0.07248668    0.00000000
     atom    3 type  1   force =     0.07248668   -0.07248668    0.00000000
     atom    4 type  1   force =     0.00544229    0.00544229    0.00000000
     atom    5 type  2   force =    -0.09066197   -0.09066197    0.00000000
     atom    6 type  2   force =    -0.00496138    0.00496138    0.00000000
     atom    7 type  2   force =     0.00496138   -0.00496138    0.00000000
     atom    8 type  2   force =     0.09066197    0.09066197    0.00000000
     atom    9 type  3   force =     0.00000000    0.00000000    0.00000000
     The non-local contrib.  to forces
     atom    1 type  1   force =     0.00573115    0.00573115    0.00000000
     atom    2 type  1   force =     0.05133021   -0.05133021    0.00000000
     atom    3 type  1   force =    -0.05133021    0.05133021    0.00000000
     atom    4 type  1   force =    -0.00573115   -0.00573115    0.00000000
     atom    5 type  2   force =    -0.61958482   -0.61958482    0.00000000
     atom    6 type  2   force =    -0.04462910    0.04462910    0.00000000
     atom    7 type  2   force =     0.04462910   -0.04462910    0.00000000
     atom    8 type  2   force =     0.61958482    0.61958482    0.00000000
     atom    9 type  3   force =     0.00000000    0.00000000    0.00000000
     The ionic contribution  to forces
     atom    1 type  1   force =    -0.10838699   -0.10838699   -0.00000000
     atom    2 type  1   force =    -0.47978875    0.47978875    0.00000000
     atom    3 type  1   force =     0.47978875   -0.47978875    0.00000000
     atom    4 type  1   force =     0.10838699    0.10838699   -0.00000000
     atom    5 type  2   force =     1.11950707    1.11950707    0.00000000
     atom    6 type  2   force =     0.25290298   -0.25290298   -0.00000000
     atom    7 type  2   force =    -0.25290298    0.25290298   -0.00000000
     atom    8 type  2   force =    -1.11950707   -1.11950707    0.00000000
     atom    9 type  3   force =     0.00000000    0.00000000    0.00000000
     The local contribution  to forces
     atom    1 type  1   force =     0.09728025    0.09728025    0.00000000
     atom    2 type  1   force =     0.35601539   -0.35601539    0.00000000
     atom    3 type  1   force =    -0.35601539    0.35601539    0.00000000
     atom    4 type  1   force =    -0.09728025   -0.09728025    0.00000000
     atom    5 type  2   force =    -0.59068103   -0.59068103    0.00000000
     atom    6 type  2   force =    -0.21343938    0.21343938    0.00000000
     atom    7 type  2   force =     0.21343938   -0.21343938    0.00000000
     atom    8 type  2   force =     0.59068103    0.59068103    0.00000000
     atom    9 type  3   force =    -0.00000000   -0.00000000    0.00000000
     The core correction contribution to forces
     atom    1 type  1   force =     0.00000000    0.00000000    0.00000000
     atom    2 type  1   force =     0.00000000    0.00000000    0.00000000
     atom    3 type  1   force =     0.00000000    0.00000000    0.00000000
     atom    4 type  1   force =     0.00000000    0.00000000    0.00000000
     atom    5 type  2   force =     0.00000000    0.00000000    0.00000000
     atom    6 type  2   force =     0.00000000    0.00000000    0.00000000
     atom    7 type  2   force =     0.00000000    0.00000000    0.00000000
     atom    8 type  2   force =     0.00000000    0.00000000    0.00000000
     atom    9 type  3   force =     0.00000000    0.00000000    0.00000000
     The Hubbard contrib.    to forces
     atom    1 type  1   force =     0.00000000    0.00000000    0.00000000
     atom    2 type  1   force =     0.00000000    0.00000000    0.00000000
     atom    3 type  1   force =     0.00000000    0.00000000    0.00000000
     atom    4 type  1   force =     0.00000000    0.00000000    0.00000000
     atom    5 type  2   force =     0.00000000    0.00000000    0.00000000
     atom    6 type  2   force =     0.00000000    0.00000000    0.00000000
     atom    7 type  2   force =     0.00000000    0.00000000    0.00000000
     atom    8 type  2   force =     0.00000000    0.00000000    0.00000000
     atom    9 type  3   force =     0.00000000    0.00000000    0.00000000
     The SCF correction term to forces
     atom    1 type  1   force =    -0.00006670   -0.00006670   -0.00000000
     atom    2 type  1   force =    -0.00004354    0.00004354    0.00000000
     atom    3 type  1   force =     0.00004354   -0.00004354    0.00000000
     atom    4 type  1   force =     0.00006670    0.00006670   -0.00000000
     atom    5 type  2   force =     0.00009681    0.00009681    0.00000000
     atom    6 type  2   force =     0.00020412   -0.00020412    0.00000000
     atom    7 type  2   force =    -0.00020412    0.00020412    0.00000000
     atom    8 type  2   force =    -0.00009681   -0.00009681    0.00000000
     atom    9 type  3   force =     0.00000000   -0.00000000   -0.00000000

     Total force =     0.232621     Total SCF correction =     0.000479

     Computing stress (Cartesian axis) and pressure

          total   stress  (Ry/bohr**3)                   (kbar)     P=     -193.25
  -0.00130617  -0.00137294   0.00000000         -192.14     -201.97        0.00
  -0.00137294  -0.00130617   0.00000000         -201.97     -192.14        0.00
   0.00000000   0.00000000  -0.00132878            0.00        0.00     -195.47

     kinetic stress (kbar)  18247.24   -352.98      0.00
                             -352.98  18247.24      0.00
                                0.00      0.00  18572.57

     local   stress (kbar)  -3553.08   -527.06      0.00
                             -527.06  -3553.08     -0.00
                                0.00     -0.00  -2528.59

     nonloc. stress (kbar)    145.97    -43.57      0.00
                              -43.57    145.97      0.00
                                0.00      0.00    199.10

     hartree stress (kbar)   7620.26    129.95     -0.00
                              129.95   7620.26      0.00
                               -0.00      0.00   7411.30

     exc-cor stress (kbar)  -5309.85      5.08     -0.00
                                5.08  -5309.85      0.00
                               -0.00      0.00  -5317.02

     corecor stress (kbar)      0.00      0.00      0.00
                                0.00      0.00      0.00
                                0.00      0.00      0.00

     ewald   stress (kbar) -17342.69    586.62     -0.00
                              586.62 -17342.69     -0.00
                               -0.00     -0.00 -18532.83

     hubbard stress (kbar)      0.00      0.00      0.00
                                0.00      0.00      0.00
                                0.00      0.00      0.00

     DFT-D   stress (kbar)      0.00      0.00      0.00
                                0.00      0.00      0.00
                                0.00      0.00      0.00

     XDM     stress (kbar)      0.00      0.00      0.00
                                0.00      0.00      0.00
                                0.00      0.00      0.00

     dft-nl  stress (kbar)      0.00      0.00      0.00
                                0.00      0.00      0.00
                                0.00      0.00      0.00

     TS-vdW  stress (kbar)      0.00      0.00      0.00
                                0.00      0.00      0.00
                                0.00      0.00      0.00

     Writing output data file /scratch/eos/lifrlx1.save/

     General routines

     Parallel routines

   This run was terminated on:  21:42:21  17Jan2023

   JOB DONE.